(declare-fun e () String)
(declare-fun c () String)
(declare-fun b () String)
(declare-fun d () String)
(declare-fun f () String)
(declare-fun a () String)
(declare-fun h () String)
(assert (= b "ahbf"))
(assert (= (str.++ h c "hfd" d) (str.++ b "c" e)))
(assert (= (str.++ a "hd" a) (str.++ "a" f c)))

(check-sat)
